(set-logic QF_FP)
(set-info :smt-lib-version 2.0)
(set-info :category "crafted")
(set-info :source |Alberto Griggio <griggio@fbk.eu>. These benchmarks were used for the evaluation in the following paper: L. Haller, A. Griggio, M. Brain, D. Kroening: Deciding floating-point logic with systematic abstraction. FMCAD 2012. Real-numbered literals have been automatically translated by MathSAT|)
(set-info :status unknown)
;; MathSAT API call trace
;; generated on 05/20/15 17:24:53

(declare-fun b911 () (_ FloatingPoint 8 24))
(declare-fun b772 () (_ FloatingPoint 8 24))
(declare-fun b856 () (_ FloatingPoint 8 24))
(declare-fun b832 () (_ FloatingPoint 8 24))
(declare-fun b155 () (_ FloatingPoint 8 24))
(declare-fun b896 () (_ FloatingPoint 8 24))
(declare-fun b531 () (_ FloatingPoint 8 24))
(declare-fun b244 () (_ FloatingPoint 11 53))
(declare-fun b777 () (_ FloatingPoint 8 24))
(declare-fun b906 () (_ FloatingPoint 8 24))
(declare-fun b770 () (_ FloatingPoint 8 24))
(declare-fun b866 () (_ FloatingPoint 8 24))
(declare-fun b162 () (_ FloatingPoint 8 24))
(declare-fun b891 () (_ FloatingPoint 8 24))
(declare-fun b227 () (_ FloatingPoint 11 53))
(declare-fun b210 () (_ FloatingPoint 11 53))
(declare-fun b379 () (_ FloatingPoint 11 53))
(declare-fun b328 () (_ FloatingPoint 11 53))
(declare-fun b807 () (_ FloatingPoint 8 24))
(declare-fun b827 () (_ FloatingPoint 8 24))
(declare-fun b787 () (_ FloatingPoint 8 24))
(declare-fun b362 () (_ FloatingPoint 11 53))
(declare-fun b881 () (_ FloatingPoint 8 24))
(declare-fun b851 () (_ FloatingPoint 8 24))
(declare-fun b817 () (_ FloatingPoint 8 24))
(declare-fun b261 () (_ FloatingPoint 11 53))
(declare-fun b528 () (_ FloatingPoint 8 24))
(declare-fun b871 () (_ FloatingPoint 8 24))
(declare-fun b846 () (_ FloatingPoint 8 24))
(declare-fun b312 () (_ FloatingPoint 11 53))
(declare-fun b194 () (_ FloatingPoint 11 53))
(declare-fun b345 () (_ FloatingPoint 11 53))
(declare-fun b782 () (_ FloatingPoint 8 24))
(declare-fun b916 () (_ FloatingPoint 8 24))
(declare-fun b886 () (_ FloatingPoint 8 24))
(declare-fun b295 () (_ FloatingPoint 11 53))
(declare-fun b413 () (_ FloatingPoint 11 53))
(declare-fun b185 () (_ FloatingPoint 11 53))
(declare-fun b792 () (_ FloatingPoint 8 24))
(declare-fun b861 () (_ FloatingPoint 8 24))
(declare-fun b837 () (_ FloatingPoint 8 24))
(declare-fun b812 () (_ FloatingPoint 8 24))
(declare-fun b901 () (_ FloatingPoint 8 24))
(declare-fun b797 () (_ FloatingPoint 8 24))
(declare-fun b822 () (_ FloatingPoint 8 24))
(declare-fun b765 () (_ FloatingPoint 8 24))
(declare-fun b278 () (_ FloatingPoint 11 53))
(declare-fun b172 () (_ FloatingPoint 11 53))
(declare-fun b876 () (_ FloatingPoint 8 24))
(declare-fun b153 () (_ FloatingPoint 8 24))
(declare-fun b802 () (_ FloatingPoint 8 24))
(declare-fun b396 () (_ FloatingPoint 11 53))
(define-fun _t_3 () RoundingMode RNE)
(define-fun _t_9 () (_ FloatingPoint 8 24) b153)
(define-fun _t_10 () (_ FloatingPoint 8 24) (fp.mul _t_3 _t_9 _t_9))
(define-fun _t_11 () (_ FloatingPoint 8 24) (fp.neg _t_10))
(define-fun _t_12 () (_ FloatingPoint 8 24) (fp.mul _t_3 _t_9 _t_11))
(define-fun _t_13 () (_ FloatingPoint 11 53) ((_ to_fp 11 53) _t_3 _t_12))
(define-fun _t_14 () (_ FloatingPoint 11 53) b172)
(define-fun _t_15 () (_ FloatingPoint 11 53) (fp.div _t_3 _t_13 _t_14))
(define-fun _t_16 () (_ FloatingPoint 8 24) ((_ to_fp 8 24) _t_3 _t_15))
(define-fun _t_17 () (_ FloatingPoint 8 24) b916)
(define-fun _t_18 () Bool (= _t_16 _t_17))
(define-fun _t_19 () Bool (not _t_18))
(define-fun _t_20 () (_ FloatingPoint 8 24) (fp.mul _t_3 _t_11 _t_16))
(define-fun _t_21 () (_ FloatingPoint 11 53) ((_ to_fp 11 53) _t_3 _t_20))
(define-fun _t_22 () (_ FloatingPoint 11 53) b194)
(define-fun _t_23 () (_ FloatingPoint 11 53) (fp.div _t_3 _t_21 _t_22))
(define-fun _t_24 () (_ FloatingPoint 8 24) ((_ to_fp 8 24) _t_3 _t_23))
(define-fun _t_25 () (_ FloatingPoint 8 24) b911)
(define-fun _t_26 () Bool (= _t_24 _t_25))
(define-fun _t_27 () Bool (not _t_26))
(define-fun _t_28 () (_ FloatingPoint 8 24) (fp.mul _t_3 _t_11 _t_24))
(define-fun _t_29 () (_ FloatingPoint 11 53) ((_ to_fp 11 53) _t_3 _t_28))
(define-fun _t_30 () (_ FloatingPoint 11 53) b210)
(define-fun _t_31 () (_ FloatingPoint 11 53) (fp.div _t_3 _t_29 _t_30))
(define-fun _t_32 () (_ FloatingPoint 8 24) ((_ to_fp 8 24) _t_3 _t_31))
(define-fun _t_33 () (_ FloatingPoint 8 24) b906)
(define-fun _t_34 () Bool (= _t_32 _t_33))
(define-fun _t_35 () Bool (not _t_34))
(define-fun _t_36 () (_ FloatingPoint 8 24) (fp.mul _t_3 _t_11 _t_32))
(define-fun _t_37 () (_ FloatingPoint 11 53) ((_ to_fp 11 53) _t_3 _t_36))
(define-fun _t_38 () (_ FloatingPoint 11 53) b227)
(define-fun _t_39 () (_ FloatingPoint 11 53) (fp.div _t_3 _t_37 _t_38))
(define-fun _t_40 () (_ FloatingPoint 8 24) ((_ to_fp 8 24) _t_3 _t_39))
(define-fun _t_41 () (_ FloatingPoint 8 24) b901)
(define-fun _t_42 () Bool (= _t_40 _t_41))
(define-fun _t_43 () Bool (not _t_42))
(define-fun _t_44 () (_ FloatingPoint 8 24) (fp.mul _t_3 _t_11 _t_40))
(define-fun _t_45 () (_ FloatingPoint 11 53) ((_ to_fp 11 53) _t_3 _t_44))
(define-fun _t_46 () (_ FloatingPoint 11 53) b244)
(define-fun _t_47 () (_ FloatingPoint 11 53) (fp.div _t_3 _t_45 _t_46))
(define-fun _t_48 () (_ FloatingPoint 8 24) ((_ to_fp 8 24) _t_3 _t_47))
(define-fun _t_49 () (_ FloatingPoint 8 24) b896)
(define-fun _t_50 () Bool (= _t_48 _t_49))
(define-fun _t_51 () Bool (not _t_50))
(define-fun _t_52 () (_ FloatingPoint 8 24) (fp.mul _t_3 _t_11 _t_48))
(define-fun _t_53 () (_ FloatingPoint 11 53) ((_ to_fp 11 53) _t_3 _t_52))
(define-fun _t_54 () (_ FloatingPoint 11 53) b261)
(define-fun _t_55 () (_ FloatingPoint 11 53) (fp.div _t_3 _t_53 _t_54))
(define-fun _t_56 () (_ FloatingPoint 8 24) ((_ to_fp 8 24) _t_3 _t_55))
(define-fun _t_57 () (_ FloatingPoint 8 24) b891)
(define-fun _t_58 () Bool (= _t_56 _t_57))
(define-fun _t_59 () Bool (not _t_58))
(define-fun _t_60 () (_ FloatingPoint 8 24) (fp.mul _t_3 _t_11 _t_56))
(define-fun _t_61 () (_ FloatingPoint 11 53) ((_ to_fp 11 53) _t_3 _t_60))
(define-fun _t_62 () (_ FloatingPoint 11 53) b278)
(define-fun _t_63 () (_ FloatingPoint 11 53) (fp.div _t_3 _t_61 _t_62))
(define-fun _t_64 () (_ FloatingPoint 8 24) ((_ to_fp 8 24) _t_3 _t_63))
(define-fun _t_65 () (_ FloatingPoint 8 24) b886)
(define-fun _t_66 () Bool (= _t_64 _t_65))
(define-fun _t_67 () Bool (not _t_66))
(define-fun _t_68 () (_ FloatingPoint 8 24) (fp.mul _t_3 _t_11 _t_64))
(define-fun _t_69 () (_ FloatingPoint 11 53) ((_ to_fp 11 53) _t_3 _t_68))
(define-fun _t_70 () (_ FloatingPoint 11 53) b295)
(define-fun _t_71 () (_ FloatingPoint 11 53) (fp.div _t_3 _t_69 _t_70))
(define-fun _t_72 () (_ FloatingPoint 8 24) ((_ to_fp 8 24) _t_3 _t_71))
(define-fun _t_73 () (_ FloatingPoint 8 24) b881)
(define-fun _t_74 () Bool (= _t_72 _t_73))
(define-fun _t_75 () Bool (not _t_74))
(define-fun _t_76 () (_ FloatingPoint 8 24) (fp.mul _t_3 _t_11 _t_72))
(define-fun _t_77 () (_ FloatingPoint 11 53) ((_ to_fp 11 53) _t_3 _t_76))
(define-fun _t_78 () (_ FloatingPoint 11 53) b312)
(define-fun _t_79 () (_ FloatingPoint 11 53) (fp.div _t_3 _t_77 _t_78))
(define-fun _t_80 () (_ FloatingPoint 8 24) ((_ to_fp 8 24) _t_3 _t_79))
(define-fun _t_81 () (_ FloatingPoint 8 24) b876)
(define-fun _t_82 () Bool (= _t_80 _t_81))
(define-fun _t_83 () Bool (not _t_82))
(define-fun _t_84 () (_ FloatingPoint 8 24) (fp.mul _t_3 _t_11 _t_80))
(define-fun _t_85 () (_ FloatingPoint 11 53) ((_ to_fp 11 53) _t_3 _t_84))
(define-fun _t_86 () (_ FloatingPoint 11 53) b328)
(define-fun _t_87 () (_ FloatingPoint 11 53) (fp.div _t_3 _t_85 _t_86))
(define-fun _t_88 () (_ FloatingPoint 8 24) ((_ to_fp 8 24) _t_3 _t_87))
(define-fun _t_89 () (_ FloatingPoint 8 24) b871)
(define-fun _t_90 () Bool (= _t_88 _t_89))
(define-fun _t_91 () Bool (not _t_90))
(define-fun _t_92 () (_ FloatingPoint 8 24) (fp.mul _t_3 _t_11 _t_88))
(define-fun _t_93 () (_ FloatingPoint 11 53) ((_ to_fp 11 53) _t_3 _t_92))
(define-fun _t_94 () (_ FloatingPoint 11 53) b345)
(define-fun _t_95 () (_ FloatingPoint 11 53) (fp.div _t_3 _t_93 _t_94))
(define-fun _t_96 () (_ FloatingPoint 8 24) ((_ to_fp 8 24) _t_3 _t_95))
(define-fun _t_97 () (_ FloatingPoint 8 24) b866)
(define-fun _t_98 () Bool (= _t_96 _t_97))
(define-fun _t_99 () Bool (not _t_98))
(define-fun _t_100 () (_ FloatingPoint 8 24) (fp.mul _t_3 _t_11 _t_96))
(define-fun _t_101 () (_ FloatingPoint 11 53) ((_ to_fp 11 53) _t_3 _t_100))
(define-fun _t_102 () (_ FloatingPoint 11 53) b362)
(define-fun _t_103 () (_ FloatingPoint 11 53) (fp.div _t_3 _t_101 _t_102))
(define-fun _t_104 () (_ FloatingPoint 8 24) ((_ to_fp 8 24) _t_3 _t_103))
(define-fun _t_105 () (_ FloatingPoint 8 24) b861)
(define-fun _t_106 () Bool (= _t_104 _t_105))
(define-fun _t_107 () Bool (not _t_106))
(define-fun _t_108 () (_ FloatingPoint 8 24) (fp.mul _t_3 _t_11 _t_104))
(define-fun _t_109 () (_ FloatingPoint 11 53) ((_ to_fp 11 53) _t_3 _t_108))
(define-fun _t_110 () (_ FloatingPoint 11 53) b379)
(define-fun _t_111 () (_ FloatingPoint 11 53) (fp.div _t_3 _t_109 _t_110))
(define-fun _t_112 () (_ FloatingPoint 8 24) ((_ to_fp 8 24) _t_3 _t_111))
(define-fun _t_113 () (_ FloatingPoint 8 24) b856)
(define-fun _t_114 () Bool (= _t_112 _t_113))
(define-fun _t_115 () Bool (not _t_114))
(define-fun _t_116 () (_ FloatingPoint 8 24) (fp.mul _t_3 _t_11 _t_112))
(define-fun _t_117 () (_ FloatingPoint 11 53) ((_ to_fp 11 53) _t_3 _t_116))
(define-fun _t_118 () (_ FloatingPoint 11 53) b396)
(define-fun _t_119 () (_ FloatingPoint 11 53) (fp.div _t_3 _t_117 _t_118))
(define-fun _t_120 () (_ FloatingPoint 8 24) ((_ to_fp 8 24) _t_3 _t_119))
(define-fun _t_121 () (_ FloatingPoint 8 24) b851)
(define-fun _t_122 () Bool (= _t_120 _t_121))
(define-fun _t_123 () Bool (not _t_122))
(define-fun _t_124 () (_ FloatingPoint 8 24) (fp.mul _t_3 _t_11 _t_120))
(define-fun _t_125 () (_ FloatingPoint 11 53) ((_ to_fp 11 53) _t_3 _t_124))
(define-fun _t_126 () (_ FloatingPoint 11 53) b413)
(define-fun _t_127 () (_ FloatingPoint 11 53) (fp.div _t_3 _t_125 _t_126))
(define-fun _t_128 () (_ FloatingPoint 8 24) ((_ to_fp 8 24) _t_3 _t_127))
(define-fun _t_129 () (_ FloatingPoint 8 24) b846)
(define-fun _t_130 () Bool (= _t_128 _t_129))
(define-fun _t_131 () Bool (not _t_130))
(define-fun _t_132 () (_ FloatingPoint 8 24) b770)
(define-fun _t_133 () (_ FloatingPoint 8 24) b837)
(define-fun _t_134 () Bool (= _t_132 _t_133))
(define-fun _t_135 () Bool (not _t_134))
(define-fun _t_136 () (_ FloatingPoint 8 24) b832)
(define-fun _t_137 () Bool (= _t_133 _t_136))
(define-fun _t_138 () Bool (not _t_137))
(define-fun _t_139 () (_ FloatingPoint 8 24) b827)
(define-fun _t_140 () Bool (= _t_136 _t_139))
(define-fun _t_141 () Bool (not _t_140))
(define-fun _t_142 () (_ FloatingPoint 8 24) b822)
(define-fun _t_143 () Bool (= _t_139 _t_142))
(define-fun _t_144 () Bool (not _t_143))
(define-fun _t_145 () (_ FloatingPoint 8 24) b817)
(define-fun _t_146 () Bool (= _t_142 _t_145))
(define-fun _t_147 () Bool (not _t_146))
(define-fun _t_148 () (_ FloatingPoint 8 24) b812)
(define-fun _t_149 () Bool (= _t_145 _t_148))
(define-fun _t_150 () Bool (not _t_149))
(define-fun _t_151 () (_ FloatingPoint 8 24) b807)
(define-fun _t_152 () Bool (= _t_148 _t_151))
(define-fun _t_153 () Bool (not _t_152))
(define-fun _t_154 () (_ FloatingPoint 8 24) b802)
(define-fun _t_155 () Bool (= _t_151 _t_154))
(define-fun _t_156 () Bool (not _t_155))
(define-fun _t_157 () (_ FloatingPoint 8 24) b797)
(define-fun _t_158 () Bool (= _t_154 _t_157))
(define-fun _t_159 () Bool (not _t_158))
(define-fun _t_160 () (_ FloatingPoint 8 24) b792)
(define-fun _t_161 () Bool (= _t_157 _t_160))
(define-fun _t_162 () Bool (not _t_161))
(define-fun _t_163 () (_ FloatingPoint 8 24) b787)
(define-fun _t_164 () Bool (= _t_160 _t_163))
(define-fun _t_165 () Bool (not _t_164))
(define-fun _t_166 () (_ FloatingPoint 8 24) b782)
(define-fun _t_167 () Bool (= _t_163 _t_166))
(define-fun _t_168 () Bool (not _t_167))
(define-fun _t_169 () (_ FloatingPoint 8 24) b777)
(define-fun _t_170 () Bool (= _t_166 _t_169))
(define-fun _t_171 () Bool (not _t_170))
(define-fun _t_172 () (_ FloatingPoint 8 24) (fp.add _t_3 _t_9 _t_16))
(define-fun _t_173 () (_ FloatingPoint 8 24) (fp.add _t_3 _t_24 _t_172))
(define-fun _t_174 () (_ FloatingPoint 8 24) (fp.add _t_3 _t_32 _t_173))
(define-fun _t_175 () (_ FloatingPoint 8 24) (fp.add _t_3 _t_40 _t_174))
(define-fun _t_176 () (_ FloatingPoint 8 24) (fp.add _t_3 _t_48 _t_175))
(define-fun _t_177 () (_ FloatingPoint 8 24) (fp.add _t_3 _t_56 _t_176))
(define-fun _t_178 () (_ FloatingPoint 8 24) (fp.add _t_3 _t_64 _t_177))
(define-fun _t_179 () (_ FloatingPoint 8 24) (fp.add _t_3 _t_72 _t_178))
(define-fun _t_180 () (_ FloatingPoint 8 24) (fp.add _t_3 _t_80 _t_179))
(define-fun _t_181 () (_ FloatingPoint 8 24) (fp.add _t_3 _t_88 _t_180))
(define-fun _t_182 () (_ FloatingPoint 8 24) (fp.add _t_3 _t_96 _t_181))
(define-fun _t_183 () (_ FloatingPoint 8 24) (fp.add _t_3 _t_104 _t_182))
(define-fun _t_184 () (_ FloatingPoint 8 24) (fp.add _t_3 _t_112 _t_183))
(define-fun _t_185 () (_ FloatingPoint 8 24) (fp.add _t_3 _t_120 _t_184))
(define-fun _t_186 () (_ FloatingPoint 8 24) (fp.add _t_3 _t_128 _t_185))
(define-fun _t_187 () Bool (= _t_169 _t_186))
(define-fun _t_188 () Bool (not _t_187))
(define-fun _t_189 () (_ FloatingPoint 8 24) b772)
(define-fun _t_190 () Bool (= _t_132 _t_189))
(define-fun _t_191 () Bool (not _t_190))
(define-fun _t_192 () (_ FloatingPoint 8 24) b765)
(define-fun _t_193 () Bool (= _t_9 _t_192))
(define-fun _t_194 () Bool (not _t_193))
(define-fun _t_195 () (_ FloatingPoint 8 24) b155)
(define-fun _t_196 () Bool (fp.leq _t_195 _t_9))
(define-fun _t_197 () Bool (not _t_196))
(define-fun _t_198 () (_ FloatingPoint 8 24) (fp.neg _t_9))
(define-fun _t_199 () Bool (= _t_192 _t_198))
(define-fun _t_200 () Bool (and _t_197 _t_199))
(define-fun _t_201 () Bool (and _t_194 _t_200))
(define-fun _t_202 () Bool (fp.leq _t_195 _t_132))
(define-fun _t_203 () Bool (not _t_202))
(define-fun _t_204 () Bool (and _t_201 _t_203))
(define-fun _t_205 () (_ FloatingPoint 8 24) (fp.neg _t_132))
(define-fun _t_206 () Bool (= _t_189 _t_205))
(define-fun _t_207 () Bool (and _t_204 _t_206))
(define-fun _t_208 () Bool (and _t_191 _t_207))
(define-fun _t_209 () (_ FloatingPoint 11 53) ((_ to_fp 11 53) _t_3 _t_121))
(define-fun _t_210 () (_ FloatingPoint 11 53) b185)
(define-fun _t_211 () Bool (fp.leq _t_210 _t_209))
(define-fun _t_212 () Bool (not _t_211))
(define-fun _t_213 () Bool (and _t_208 _t_212))
(define-fun _t_214 () Bool (= _t_169 _t_185))
(define-fun _t_215 () Bool (and _t_213 _t_214))
(define-fun _t_216 () (_ FloatingPoint 8 24) b162)
(define-fun _t_217 () Bool (fp.leq _t_189 _t_216))
(define-fun _t_218 () Bool (not _t_217))
(define-fun _t_219 () Bool (and _t_215 _t_218))
(define-fun _t_220 () (_ FloatingPoint 8 24) b531)
(define-fun _t_221 () Bool (fp.leq _t_192 _t_220))
(define-fun _t_222 () Bool (and _t_219 _t_221))
(define-fun _t_223 () (_ FloatingPoint 8 24) b528)
(define-fun _t_224 () Bool (fp.leq _t_223 _t_9))
(define-fun _t_225 () Bool (and _t_222 _t_224))
(define-fun _t_226 () Bool (fp.leq _t_9 _t_220))
(define-fun _t_227 () Bool (and _t_225 _t_226))
(define-fun _t_228 () Bool (and _t_188 _t_227))
(define-fun _t_229 () (_ FloatingPoint 11 53) ((_ to_fp 11 53) _t_3 _t_113))
(define-fun _t_230 () Bool (fp.leq _t_210 _t_229))
(define-fun _t_231 () Bool (not _t_230))
(define-fun _t_232 () Bool (and _t_228 _t_231))
(define-fun _t_233 () Bool (= _t_166 _t_184))
(define-fun _t_234 () Bool (and _t_232 _t_233))
(define-fun _t_235 () Bool (and _t_171 _t_234))
(define-fun _t_236 () (_ FloatingPoint 11 53) ((_ to_fp 11 53) _t_3 _t_105))
(define-fun _t_237 () Bool (fp.leq _t_210 _t_236))
(define-fun _t_238 () Bool (not _t_237))
(define-fun _t_239 () Bool (and _t_235 _t_238))
(define-fun _t_240 () Bool (= _t_163 _t_183))
(define-fun _t_241 () Bool (and _t_239 _t_240))
(define-fun _t_242 () Bool (and _t_168 _t_241))
(define-fun _t_243 () (_ FloatingPoint 11 53) ((_ to_fp 11 53) _t_3 _t_97))
(define-fun _t_244 () Bool (fp.leq _t_210 _t_243))
(define-fun _t_245 () Bool (not _t_244))
(define-fun _t_246 () Bool (and _t_242 _t_245))
(define-fun _t_247 () Bool (= _t_160 _t_182))
(define-fun _t_248 () Bool (and _t_246 _t_247))
(define-fun _t_249 () Bool (and _t_165 _t_248))
(define-fun _t_250 () (_ FloatingPoint 11 53) ((_ to_fp 11 53) _t_3 _t_89))
(define-fun _t_251 () Bool (fp.leq _t_210 _t_250))
(define-fun _t_252 () Bool (not _t_251))
(define-fun _t_253 () Bool (and _t_249 _t_252))
(define-fun _t_254 () Bool (= _t_157 _t_181))
(define-fun _t_255 () Bool (and _t_253 _t_254))
(define-fun _t_256 () Bool (and _t_162 _t_255))
(define-fun _t_257 () (_ FloatingPoint 11 53) ((_ to_fp 11 53) _t_3 _t_81))
(define-fun _t_258 () Bool (fp.leq _t_210 _t_257))
(define-fun _t_259 () Bool (not _t_258))
(define-fun _t_260 () Bool (and _t_256 _t_259))
(define-fun _t_261 () Bool (= _t_154 _t_180))
(define-fun _t_262 () Bool (and _t_260 _t_261))
(define-fun _t_263 () Bool (and _t_159 _t_262))
(define-fun _t_264 () (_ FloatingPoint 11 53) ((_ to_fp 11 53) _t_3 _t_73))
(define-fun _t_265 () Bool (fp.leq _t_210 _t_264))
(define-fun _t_266 () Bool (not _t_265))
(define-fun _t_267 () Bool (and _t_263 _t_266))
(define-fun _t_268 () Bool (= _t_151 _t_179))
(define-fun _t_269 () Bool (and _t_267 _t_268))
(define-fun _t_270 () Bool (and _t_156 _t_269))
(define-fun _t_271 () (_ FloatingPoint 11 53) ((_ to_fp 11 53) _t_3 _t_65))
(define-fun _t_272 () Bool (fp.leq _t_210 _t_271))
(define-fun _t_273 () Bool (not _t_272))
(define-fun _t_274 () Bool (and _t_270 _t_273))
(define-fun _t_275 () Bool (= _t_148 _t_178))
(define-fun _t_276 () Bool (and _t_274 _t_275))
(define-fun _t_277 () Bool (and _t_153 _t_276))
(define-fun _t_278 () (_ FloatingPoint 11 53) ((_ to_fp 11 53) _t_3 _t_57))
(define-fun _t_279 () Bool (fp.leq _t_210 _t_278))
(define-fun _t_280 () Bool (not _t_279))
(define-fun _t_281 () Bool (and _t_277 _t_280))
(define-fun _t_282 () Bool (= _t_145 _t_177))
(define-fun _t_283 () Bool (and _t_281 _t_282))
(define-fun _t_284 () Bool (and _t_150 _t_283))
(define-fun _t_285 () (_ FloatingPoint 11 53) ((_ to_fp 11 53) _t_3 _t_49))
(define-fun _t_286 () Bool (fp.leq _t_210 _t_285))
(define-fun _t_287 () Bool (not _t_286))
(define-fun _t_288 () Bool (and _t_284 _t_287))
(define-fun _t_289 () Bool (= _t_142 _t_176))
(define-fun _t_290 () Bool (and _t_288 _t_289))
(define-fun _t_291 () Bool (and _t_147 _t_290))
(define-fun _t_292 () (_ FloatingPoint 11 53) ((_ to_fp 11 53) _t_3 _t_41))
(define-fun _t_293 () Bool (fp.leq _t_210 _t_292))
(define-fun _t_294 () Bool (not _t_293))
(define-fun _t_295 () Bool (and _t_291 _t_294))
(define-fun _t_296 () Bool (= _t_139 _t_175))
(define-fun _t_297 () Bool (and _t_295 _t_296))
(define-fun _t_298 () Bool (and _t_144 _t_297))
(define-fun _t_299 () (_ FloatingPoint 11 53) ((_ to_fp 11 53) _t_3 _t_33))
(define-fun _t_300 () Bool (fp.leq _t_210 _t_299))
(define-fun _t_301 () Bool (not _t_300))
(define-fun _t_302 () Bool (and _t_298 _t_301))
(define-fun _t_303 () Bool (= _t_136 _t_174))
(define-fun _t_304 () Bool (and _t_302 _t_303))
(define-fun _t_305 () Bool (and _t_141 _t_304))
(define-fun _t_306 () (_ FloatingPoint 11 53) ((_ to_fp 11 53) _t_3 _t_25))
(define-fun _t_307 () Bool (fp.leq _t_210 _t_306))
(define-fun _t_308 () Bool (not _t_307))
(define-fun _t_309 () Bool (and _t_305 _t_308))
(define-fun _t_310 () Bool (= _t_133 _t_173))
(define-fun _t_311 () Bool (and _t_309 _t_310))
(define-fun _t_312 () Bool (and _t_138 _t_311))
(define-fun _t_313 () (_ FloatingPoint 11 53) ((_ to_fp 11 53) _t_3 _t_17))
(define-fun _t_314 () Bool (fp.leq _t_210 _t_313))
(define-fun _t_315 () Bool (not _t_314))
(define-fun _t_316 () Bool (and _t_312 _t_315))
(define-fun _t_317 () Bool (= _t_132 _t_172))
(define-fun _t_318 () Bool (and _t_316 _t_317))
(define-fun _t_319 () Bool (and _t_135 _t_318))
(define-fun _t_320 () Bool (fp.leq _t_195 _t_128))
(define-fun _t_321 () Bool (not _t_320))
(define-fun _t_322 () Bool (and _t_319 _t_321))
(define-fun _t_323 () (_ FloatingPoint 8 24) (fp.neg _t_128))
(define-fun _t_324 () Bool (= _t_129 _t_323))
(define-fun _t_325 () Bool (and _t_322 _t_324))
(define-fun _t_326 () Bool (and _t_131 _t_325))
(define-fun _t_327 () Bool (fp.leq _t_195 _t_120))
(define-fun _t_328 () Bool (not _t_327))
(define-fun _t_329 () Bool (and _t_326 _t_328))
(define-fun _t_330 () (_ FloatingPoint 8 24) (fp.neg _t_120))
(define-fun _t_331 () Bool (= _t_121 _t_330))
(define-fun _t_332 () Bool (and _t_329 _t_331))
(define-fun _t_333 () Bool (and _t_123 _t_332))
(define-fun _t_334 () Bool (fp.leq _t_195 _t_112))
(define-fun _t_335 () Bool (not _t_334))
(define-fun _t_336 () Bool (and _t_333 _t_335))
(define-fun _t_337 () (_ FloatingPoint 8 24) (fp.neg _t_112))
(define-fun _t_338 () Bool (= _t_113 _t_337))
(define-fun _t_339 () Bool (and _t_336 _t_338))
(define-fun _t_340 () Bool (and _t_115 _t_339))
(define-fun _t_341 () Bool (fp.leq _t_195 _t_104))
(define-fun _t_342 () Bool (not _t_341))
(define-fun _t_343 () Bool (and _t_340 _t_342))
(define-fun _t_344 () (_ FloatingPoint 8 24) (fp.neg _t_104))
(define-fun _t_345 () Bool (= _t_105 _t_344))
(define-fun _t_346 () Bool (and _t_343 _t_345))
(define-fun _t_347 () Bool (and _t_107 _t_346))
(define-fun _t_348 () Bool (fp.leq _t_195 _t_96))
(define-fun _t_349 () Bool (not _t_348))
(define-fun _t_350 () Bool (and _t_347 _t_349))
(define-fun _t_351 () (_ FloatingPoint 8 24) (fp.neg _t_96))
(define-fun _t_352 () Bool (= _t_97 _t_351))
(define-fun _t_353 () Bool (and _t_350 _t_352))
(define-fun _t_354 () Bool (and _t_99 _t_353))
(define-fun _t_355 () Bool (fp.leq _t_195 _t_88))
(define-fun _t_356 () Bool (not _t_355))
(define-fun _t_357 () Bool (and _t_354 _t_356))
(define-fun _t_358 () (_ FloatingPoint 8 24) (fp.neg _t_88))
(define-fun _t_359 () Bool (= _t_89 _t_358))
(define-fun _t_360 () Bool (and _t_357 _t_359))
(define-fun _t_361 () Bool (and _t_91 _t_360))
(define-fun _t_362 () Bool (fp.leq _t_195 _t_80))
(define-fun _t_363 () Bool (not _t_362))
(define-fun _t_364 () Bool (and _t_361 _t_363))
(define-fun _t_365 () (_ FloatingPoint 8 24) (fp.neg _t_80))
(define-fun _t_366 () Bool (= _t_81 _t_365))
(define-fun _t_367 () Bool (and _t_364 _t_366))
(define-fun _t_368 () Bool (and _t_83 _t_367))
(define-fun _t_369 () Bool (fp.leq _t_195 _t_72))
(define-fun _t_370 () Bool (not _t_369))
(define-fun _t_371 () Bool (and _t_368 _t_370))
(define-fun _t_372 () (_ FloatingPoint 8 24) (fp.neg _t_72))
(define-fun _t_373 () Bool (= _t_73 _t_372))
(define-fun _t_374 () Bool (and _t_371 _t_373))
(define-fun _t_375 () Bool (and _t_75 _t_374))
(define-fun _t_376 () Bool (fp.leq _t_195 _t_64))
(define-fun _t_377 () Bool (not _t_376))
(define-fun _t_378 () Bool (and _t_375 _t_377))
(define-fun _t_379 () (_ FloatingPoint 8 24) (fp.neg _t_64))
(define-fun _t_380 () Bool (= _t_65 _t_379))
(define-fun _t_381 () Bool (and _t_378 _t_380))
(define-fun _t_382 () Bool (and _t_67 _t_381))
(define-fun _t_383 () Bool (fp.leq _t_195 _t_56))
(define-fun _t_384 () Bool (not _t_383))
(define-fun _t_385 () Bool (and _t_382 _t_384))
(define-fun _t_386 () (_ FloatingPoint 8 24) (fp.neg _t_56))
(define-fun _t_387 () Bool (= _t_57 _t_386))
(define-fun _t_388 () Bool (and _t_385 _t_387))
(define-fun _t_389 () Bool (and _t_59 _t_388))
(define-fun _t_390 () Bool (fp.leq _t_195 _t_48))
(define-fun _t_391 () Bool (not _t_390))
(define-fun _t_392 () Bool (and _t_389 _t_391))
(define-fun _t_393 () (_ FloatingPoint 8 24) (fp.neg _t_48))
(define-fun _t_394 () Bool (= _t_49 _t_393))
(define-fun _t_395 () Bool (and _t_392 _t_394))
(define-fun _t_396 () Bool (and _t_51 _t_395))
(define-fun _t_397 () Bool (fp.leq _t_195 _t_40))
(define-fun _t_398 () Bool (not _t_397))
(define-fun _t_399 () Bool (and _t_396 _t_398))
(define-fun _t_400 () (_ FloatingPoint 8 24) (fp.neg _t_40))
(define-fun _t_401 () Bool (= _t_41 _t_400))
(define-fun _t_402 () Bool (and _t_399 _t_401))
(define-fun _t_403 () Bool (and _t_43 _t_402))
(define-fun _t_404 () Bool (fp.leq _t_195 _t_32))
(define-fun _t_405 () Bool (not _t_404))
(define-fun _t_406 () Bool (and _t_403 _t_405))
(define-fun _t_407 () (_ FloatingPoint 8 24) (fp.neg _t_32))
(define-fun _t_408 () Bool (= _t_33 _t_407))
(define-fun _t_409 () Bool (and _t_406 _t_408))
(define-fun _t_410 () Bool (and _t_35 _t_409))
(define-fun _t_411 () Bool (fp.leq _t_195 _t_24))
(define-fun _t_412 () Bool (not _t_411))
(define-fun _t_413 () Bool (and _t_410 _t_412))
(define-fun _t_414 () (_ FloatingPoint 8 24) (fp.neg _t_24))
(define-fun _t_415 () Bool (= _t_25 _t_414))
(define-fun _t_416 () Bool (and _t_413 _t_415))
(define-fun _t_417 () Bool (and _t_27 _t_416))
(define-fun _t_418 () Bool (fp.leq _t_195 _t_16))
(define-fun _t_419 () Bool (not _t_418))
(define-fun _t_420 () Bool (and _t_417 _t_419))
(define-fun _t_421 () (_ FloatingPoint 8 24) (fp.neg _t_16))
(define-fun _t_422 () Bool (= _t_17 _t_421))
(define-fun _t_423 () Bool (and _t_420 _t_422))
(define-fun _t_424 () (_ FloatingPoint 11 53) ((_ to_fp 11 53) _t_3 _t_129))
(define-fun _t_425 () Bool (fp.leq _t_210 _t_424))
(define-fun _t_426 () Bool (not _t_425))
(define-fun _t_427 () Bool (and _t_423 _t_426))
(define-fun _t_428 () Bool (and _t_19 _t_427))
(assert _t_428)
(check-sat)
